(set-info :source |printed by MathSAT|)
(declare-fun a_1 () (Array Int Int))
(declare-fun .y.11 () (Array Int Int))
(declare-fun i_1 () Int)
(declare-fun .y.12 () Int)
(declare-fun CC_1 () Int)
(declare-fun .y.13 () Int)
(declare-fun val1_1 () Int)
(declare-fun .y.14 () Int)
(declare-fun val2_1 () Int)
(declare-fun .y.15 () Int)
(declare-fun val3_1 () Int)
(declare-fun .y.16 () Int)
(declare-fun val4_1 () Int)
(declare-fun .y.17 () Int)
(declare-fun minval_1 () Int)
(declare-fun .y.18 () Int)
(declare-fun .loc.10 () Bool)
(declare-fun .loc.19 () Bool)
(declare-fun i1_0 () Int)
(define-fun .def_8 () (Array Int Int) (! a_1 :next |.y.11|))
(define-fun .def_10 () Int (! i_1 :next |.y.12|))
(define-fun .def_12 () Int (! CC_1 :next |.y.13|))
(define-fun .def_14 () Int (! val1_1 :next |.y.14|))
(define-fun .def_16 () Int (! val2_1 :next |.y.15|))
(define-fun .def_18 () Int (! val3_1 :next |.y.16|))
(define-fun .def_20 () Int (! val4_1 :next |.y.17|))
(define-fun .def_22 () Int (! minval_1 :next |.y.18|))
(define-fun .def_24 () Bool (! .loc.10 :next |.loc.19|))
(define-fun .def_75 () Int (! i1_0 :next |.xtv.1|))
(define-fun .def_107 () Bool (= .def_10 1))
(define-fun .def_106 () Bool (= .def_20 5))
(define-fun .def_108 () Bool (and .def_106 .def_107))
(define-fun .def_104 () Bool (= .def_18 7))
(define-fun .def_109 () Bool (and .def_104 .def_108))
(define-fun .def_102 () Bool (= .def_16 3))
(define-fun .def_110 () Bool (and .def_102 .def_109))
(define-fun .def_99 () Bool (<= .def_12 0))
(define-fun .def_100 () Bool (not .def_99))
(define-fun .def_111 () Bool (and .def_100 .def_110))
(define-fun .def_98 () Bool (= .def_14 1))
(define-fun .def_112 () Bool (and .def_98 .def_111))
(define-fun .def_95 () Bool (! (not .def_24) :invar-property 0))
(define-fun .def_113 () Bool (! (and .def_95 .def_112) :init true))
(define-fun .def_86 () Int (select .def_8 .def_75))
(define-fun .def_90 () Bool (= .def_86 0))
(define-fun .def_91 () Bool (not .def_90))
(define-fun .def_87 () Bool (<= .def_22 .def_86))
(define-fun .def_88 () Bool (not .def_87))
(define-fun .def_79 () Int (* (- 1) .def_75))
(define-fun .def_80 () Int (* 4 .def_12))
(define-fun .def_82 () Int (+ .def_80 .def_79))
(define-fun .def_83 () Bool (<= .def_82 0))
(define-fun .def_84 () Bool (not .def_83))
(define-fun .def_27 () Bool (<= .def_10 .def_12))
(define-fun .def_77 () Bool (not .def_27))
(define-fun .def_76 () Bool (<= 0 .def_75))
(define-fun .def_78 () Bool (and .def_76 .def_77))
(define-fun .def_85 () Bool (and .def_78 .def_84))
(define-fun .def_89 () Bool (and .def_85 .def_88))
(define-fun .def_92 () Bool (and .def_89 .def_91))
(define-fun .def_93 () Bool (and .loc.19 .def_92))
(define-fun .def_73 () Bool (= .def_22 .y.18))
(define-fun .def_71 () Bool (= .def_20 .y.17))
(define-fun .def_69 () Bool (= .def_18 .y.16))
(define-fun .def_67 () Bool (= .def_16 .y.15))
(define-fun .def_65 () Bool (= .def_14 .y.14))
(define-fun .def_63 () Bool (= .def_12 .y.13))
(define-fun .def_59 () Int (* (- 1) .y.12))
(define-fun .def_60 () Int (+ .def_10 .def_59))
(define-fun .def_61 () Bool (= .def_60 (- 1)))
(define-fun .def_32 () Int (* 4 .def_10))
(define-fun .def_52 () Int (+ .def_32 (- 1)))
(define-fun .def_35 () Int (+ .def_32 (- 2)))
(define-fun .def_37 () Int (+ .def_32 (- 3)))
(define-fun .def_39 () Int (+ .def_32 (- 4)))
(define-fun .def_40 () (Array Int Int) (store .def_8 .def_39 0))
(define-fun .def_41 () (Array Int Int) (store .def_8 .def_39 .def_20))
(define-fun .def_42 () Bool (<= .def_22 .def_20))
(define-fun .def_43 () (Array Int Int) (ite .def_42 .def_41 .def_40))
(define-fun .def_44 () (Array Int Int) (store .def_43 .def_37 0))
(define-fun .def_45 () (Array Int Int) (store .def_43 .def_37 .def_18))
(define-fun .def_46 () Bool (<= .def_22 .def_18))
(define-fun .def_47 () (Array Int Int) (ite .def_46 .def_45 .def_44))
(define-fun .def_48 () (Array Int Int) (store .def_47 .def_35 0))
(define-fun .def_49 () (Array Int Int) (store .def_47 .def_35 .def_16))
(define-fun .def_50 () Bool (<= .def_22 .def_16))
(define-fun .def_51 () (Array Int Int) (ite .def_50 .def_49 .def_48))
(define-fun .def_53 () (Array Int Int) (store .def_51 .def_52 0))
(define-fun .def_54 () (Array Int Int) (store .def_51 .def_52 .def_14))
(define-fun .def_55 () Bool (<= .def_22 .def_14))
(define-fun .def_56 () (Array Int Int) (ite .def_55 .def_54 .def_53))
(define-fun .def_57 () Bool (= .y.11 .def_56))
(define-fun .def_26 () Bool (not .loc.19))
(define-fun .def_28 () Bool (and .def_26 .def_27))
(define-fun .def_58 () Bool (and .def_28 .def_57))
(define-fun .def_62 () Bool (and .def_58 .def_61))
(define-fun .def_64 () Bool (and .def_62 .def_63))
(define-fun .def_66 () Bool (and .def_64 .def_65))
(define-fun .def_68 () Bool (and .def_66 .def_67))
(define-fun .def_70 () Bool (and .def_68 .def_69))
(define-fun .def_72 () Bool (and .def_70 .def_71))
(define-fun .def_74 () Bool (and .def_72 .def_73))
(define-fun .def_94 () Bool (or .def_74 .def_93))
(define-fun .def_96 () Bool (! (and .def_94 .def_95) :trans true))
(assert true)
